<number of tasks>
50

<cycle time>
1000

<order strength>
0.598


<task times>
1 184
2 322
3 97
4 23
5 254
6 45
7 40
8 121
9 169
10 150
11 163
12 237
13 259
14 91
15 32
16 180
17 64
18 180
19 311
20 79
21 171
22 29
23 79
24 47
25 54
26 48
27 123
28 149
29 136
30 32
31 21
32 95
33 246
34 150
35 111
36 214
37 123
38 183
39 178
40 168
41 398
42 336
43 314
44 190
45 43
46 58
47 261
48 180
49 54
50 199

<precedence relations>
1,7
2,4
2,5
2,6
2,14
3,4
3,7
3,8
4,9
5,10
5,23
6,9
6,23
7,12
7,13
7,14
8,11
8,14
8,22
9,15
9,17
9,18
10,18
11,15
11,16
11,20
12,15
13,16
13,17
13,18
14,16
14,24
15,19
15,30
16,23
17,19
17,20
17,22
17,24
18,19
18,21
19,41
21,25
22,26
23,26
24,39
24,50
25,28
25,31
25,32
26,27
26,29
26,30
26,34
27,44
28,34
28,36
30,35
30,36
30,42
31,33
31,45
32,49
33,37
33,38
33,42
34,37
34,39
34,44
35,37
35,38
35,40
36,41
37,43
37,47
38,44
38,47
39,46
40,45
40,49
41,48
42,47
43,49
45,50
46,48
46,49
47,49

<end>
